 2 4 20 1 999999 85
 1	42	41	0	19	1    
 2	31	32	0	29	1    
 3	 5	25	0	23	1    
 4	12	42	0	21	1    
 5	36	16	0	10	1    
 6	52	41	0	15	1    
 7	27	23	0	 3	1    
 8	17	33	0	41	1    
 9	13	13	0	 9	1    
10	57	58	0	28	1    
11	62	42	0	 8	1    
12	42	57	0	 8	1    
13	16	57	0	16	1    
14	 8	52	0	10	1    
15	 7	38	0	28	1    
16	27	68	0	 7	1    
17	30	48	0	15	1
18	43	67	0	14	1
19	58	48	0	 6	1
20	58	27	0	19	1
 0	30	40	0	9999	1
